
  32    4
  10   10   10   10

   0   0   0   0   0   9 2 3 4 5 6 7 10 11 25 
   8   1   1   0   1   8 31 24 20 18 17 16 9 8 
  10   4   6   1   0   6 31 24 19 16 15 14 
   9   1   5   3   0   4 24 15 14 12 
   5   6   0   9   5   5 31 28 20 19 14 
   8   0   4   6   4   4 31 15 14 13 
   8   3   0   3   5   4 31 24 22 13 
   1   0   7   8   5   3 29 23 12 
   2   5   5   0   2   3 15 14 13 
   9   5   0   4   5   3 29 20 12 
   6   3   5   0   5   2 15 13 
  10   3   2   4   0   4 30 28 21 19 
   2   3   3   0   5   4 29 27 23 21 
  10   5   6   4   0   3 30 29 23 
   9   2   0   5   3   3 29 28 23 
   6   6   2   3   0   3 30 26 22 
   2   0   7   2   5   3 28 26 22 
   2   0   2   4   4   2 22 21 
  10   6   4   5   0   1 22 
   7   5   6   4   0   1 21 
   8   6   6   0   4   1 26 
   8   3   0   2   2   1 27 
   7   6   6   0   5   1 26 
   9   4   4   0   2   1 28 
   2   0   1   4   6   1 28 
   5   0   4   5   4   1 32
   9   0   4   4   5   1 32
   5   5   4   2   0   1 32
   4   0   3   3   3   1 32
   4   1   1   4   0   1 32
   5   5   2   3   0   1 32
   0   0   0   0   0   0 
